
Gurobi 5.6.0 (win64) logging started 01/14/14 21:57:09

Optimize a model with 2 rows, 3 columns and 5 nonzeros
Found heuristic solution: objective 2
Presolve removed 2 rows and 3 columns
Presolve time: 0.00s

Explored 0 nodes (0 simplex iterations) in 0.00 seconds
Thread count was 1 (of 4 available processors)

Optimal solution found (tolerance 1.00e-04)
Best objective 3.000000000000e+00, best bound 3.000000000000e+00, gap 0.0%

Gurobi 5.6.0 (win64) logging started 01/14/14 22:00:20

Optimize a model with 2 rows, 3 columns and 5 nonzeros
Found heuristic solution: objective 2
Presolve removed 2 rows and 3 columns
Presolve time: 0.01s

Explored 0 nodes (0 simplex iterations) in 0.01 seconds
Thread count was 1 (of 4 available processors)

Optimal solution found (tolerance 1.00e-04)
Best objective 3.000000000000e+00, best bound 3.000000000000e+00, gap 0.0%

Gurobi 5.6.0 (win64) logging started 02/02/14 14:38:21

Optimize a model with 2 rows, 3 columns and 5 nonzeros
Found heuristic solution: objective 2
Presolve removed 2 rows and 3 columns
Presolve time: 0.01s

Explored 0 nodes (0 simplex iterations) in 0.01 seconds
Thread count was 1 (of 4 available processors)

Optimal solution found (tolerance 1.00e-04)
Best objective 3.000000000000e+00, best bound 3.000000000000e+00, gap 0.0%

Gurobi 5.6.0 (win64) logging started 02/09/14 17:13:27

Optimize a model with 2 rows, 3 columns and 5 nonzeros
Found heuristic solution: objective 2
Presolve removed 2 rows and 3 columns
Presolve time: 0.00s

Explored 0 nodes (0 simplex iterations) in 0.00 seconds
Thread count was 1 (of 4 available processors)

Optimal solution found (tolerance 1.00e-04)
Best objective 3.000000000000e+00, best bound 3.000000000000e+00, gap 0.0%

Gurobi 5.6.0 (win64) logging started 02/09/14 17:14:24

Optimize a model with 2 rows, 3 columns and 5 nonzeros
Found heuristic solution: objective 2
Presolve removed 2 rows and 3 columns
Presolve time: 0.00s

Explored 0 nodes (0 simplex iterations) in 0.00 seconds
Thread count was 1 (of 4 available processors)

Optimal solution found (tolerance 1.00e-04)
Best objective 3.000000000000e+00, best bound 3.000000000000e+00, gap 0.0%

Gurobi 5.6.0 (win64) logging started 02/09/14 17:14:52

Optimize a model with 2 rows, 3 columns and 5 nonzeros
Found heuristic solution: objective 2
Presolve removed 2 rows and 3 columns
Presolve time: 0.00s

Explored 0 nodes (0 simplex iterations) in 0.00 seconds
Thread count was 1 (of 4 available processors)

Optimal solution found (tolerance 1.00e-04)
Best objective 3.000000000000e+00, best bound 3.000000000000e+00, gap 0.0%

Gurobi 5.6.0 (win64) logging started 02/09/14 17:15:41

